NAME : XML100_1352_19
DIMENSION : 101
NB_CLUSTERS : 4
CLUSTERING_ALG : KMedoids
CLUSTERING_PARAMS : k(3)
CLUSTERS
1 0
2 10 24 26 28 32 35 39 41 50 53 70 73 89
3 2 3 4 5 6 8 13 14 15 17 27 31 33 34 36 40 42 43 49 51 54 56 57 59 60 62 66 67 72 74 76 77 79 80 81 82 83 86 91 98 99 100
4 1 7 9 11 12 16 18 19 20 21 22 23 25 29 30 37 38 44 45 46 47 48 52 55 58 61 63 64 65 68 69 71 75 78 84 85 87 88 90 92 93 94 95 96 97
EOF